sat
(:max-memory         18.15
 :memory             18.05
 :nlsat-conflicts    1
 :nlsat-propagations 12
 :nlsat-stages       5
 :num-allocs         33136
 :rlimit-count       3883
 :time               0.00
 :total-time         0.01)
